CMD:
./solvers/bin/cadical --plain --no-reduce -t 1600 ./data/cnfs//dme6p1/dme6p1.93.cnf

c --- [ banner ] -------------------------------------------------------------
c 
c CaDiCaL SAT Solver
c Copyright (c) 2016-2024
c A. Biere, M. Fleury, N. Froleyks, K. Fazekas, F. Pollitt, T. Faller
c JKU Linz, University of Freiburg, TU Wien
c 
c Version 2.1.3 5296d3d2a9bf48c154ab2acb5e44625776d821bf
c g++ (Gentoo 12.3.1_p20230526 p2) 12.3.1 20230526 -Wall -Wextra -O3 -DNDEBUG
c Sat Aug 9 07:26:21 PDT 2025 Linux cedar2.int.cedar.computecanada.ca 5.14.0-362.24.2.el9_3.x86_64 x86_64
c 
c --- [ limit ] --------------------------------------------------------------
c 
c setting time limit to 1600 seconds real time (due to '-t 1600')
c 
c --- [ parsing input ] ------------------------------------------------------
c 
c reading DIMACS file from './data/cnfs//dme6p1/dme6p1.93.cnf'
c opening file to read './data/cnfs//dme6p1/dme6p1.93.cnf'
c found 'p cnf 235700 640673' header
c parsed 640673 clauses in 0.11 seconds process time
c 
c --- [ options ] ------------------------------------------------------------
c 
c   --compact=false                (different from default 'true')
c   --decompose=false              (different from default 'true')
c   --deduplicate=false            (different from default 'true')
c   --elim=false                   (different from default 'true')
c   --probe=false                  (different from default 'true')
c   --reduce=false                 (different from default 'true')
c   --subsume=false                (different from default 'true')
c   --ternary=false                (different from default 'true')
c   --transred=false               (different from default 'true')
c   --vivify=false                 (different from default 'true')
c 
c --- [ solving ] ------------------------------------------------------------
c 
c time measured in process time since initialization
c 
c  seconds   reductions  redundant  irredundant
c          MB    restarts       trail       variables
c           level   conflicts       glue          remaining
c 
c *  0.11 105  0 0   0    0    0  0% 0 624904 186778 79%
c l  0.15 109  0 0   0    0    0  0% 0 624904 186778 79%
c 1  0.15 109  0 0   0    0    0  0% 0 624904 186778 79%
c 
c --- [ result ] -------------------------------------------------------------
c 
s SATISFIABLE
v -1 -2 -3 -4 -5 -6 7 8 9 -10 -11 -12 -13 -14 -15 -16 -17 -18 -19 -20 -21 -22
v -23 -24 -25 -26 -27 -28 -29 -30 -31 -32 -33 -34 -35 -36 -37 -38 -39 -40 -41
v -42 -43 -44 -45 -46 -47 -48 -49 -50 -51 -52 -53 -54 -55 -56 -57 -58 -59 -60
v -61 -62 -63 -64 -65 -66 -67 -68 -69 -70 -71 -72 -73 -74 -75 -76 -77 -78 -79
v -80 -81 -82 -83 -84 -85 -86 -87 -88 -89 -90 -91 -92 -93 -94 -95 -96 -97 -98
v -99 -100 -101 -102 -103 -104 -105 -106 -107 -108 -109 -110 -111 -112 -113
v -114 -115 -116 -117 -118 -119 -120 -121 -122 -123 -124 -125 -126 -127 -128
v -129 -130 -131 -132 -133 -134 -135 -136 -137 -138 -139 -140 -141 -142 -143
v -144 -145 -146 -147 -148 -149 -150 -151 -152 -153 -154 -155 -156 -157 -158
v -159 -160 -161 -162 -163 -164 -165 -166 -167 -168 -169 -170 -171 -172 -173
v -174 -175 -176 -177 -178 -179 -180 -181 -182 -183 -184 -185 -186 -187 -188
v -189 -190 -191 -192 -193 -194 -195 -196 -197 -198 -199 -200 -201 -202 -203
v -204 -205 -206 -207 -208 -209 -210 -211 -212 -213 -214 -215 -216 -217 -218
v -219 -220 -221 -222 -223 -224 -225 -226 -227 -228 -229 -230 -231 -232 -233
v -234 -235 -236 -237 -238 -239 -240 -241 -242 -243 -244 -245 -246 -247 -248
v -249 -250 -251 -252 -253 -254 -255 -256 -257 -258 -259 -260 -261 -262 -263
v -264 -265 -266 -267 -268 -269 -270 -271 -272 -273 -274 -275 -276 -277 -278
v -279 -280 -281 -282 -283 -284 -285 -286 -287 -288 -289 -290 -291 -292 -293
v -294 -295 -296 -297 -298 -299 -300 -301 -302 -303 -304 -305 -306 -307 -308
v -309 -310 -311 -312 -313 -314 -315 -316 -317 -318 -319 -320 -321 -322 -323
v -324 -325 -326 -327 -328 -329 -330 -331 -332 -333 -334 -335 -336 -337 -338
v -339 -340 -341 -342 -343 -344 -345 -346 -347 -348 -349 -350 -351 -352 -353
v -354 -355 -356 -357 -358 -359 -360 -361 -362 -363 -364 -365 -366 -367 -368
v -369 -370 -371 -372 -373 -374 -375 -376 -377 -378 -379 -380 -381 -382 -383
v -384 -385 -386 -387 -388 -389 -390 -391 -392 -393 -394 -395 -396 -397 -398
v -399 -400 -401 -402 -403 -404 -405 -406 -407 -408 -409 -410 -411 -412 -413
v -414 -415 -416 -417 -418 -419 -420 -421 -422 -423 -424 -425 -426 -427 -428
v -429 -430 -431 -432 -433 -434 -435 -436 -437 -438 -439 -440 -441 -442 -443
v -444 -445 -446 -447 -448 -449 -450 -451 -452 -453 -454 -455 -456 -457 -458
v -459 -460 -461 -462 -463 -464 -465 -466 -467 -468 -469 -470 -471 -472 -473
v -474 -475 -476 -477 -478 -479 -480 -481 -482 -483 -484 -485 -486 487 -488
v -489 -490 491 -492 -493 -494 495 -496 -497 498 -499 -500 501 -502 -503 -504
v 505 -506 -507 508 -509 -510 -511 -512 513 -514 -515 516 -517 -518 -519 -520
v 521 -522 -523 524 -525 526 -527 -528 529 -530 -531 -532 533 -534 535 -536
v -537 538 -539 -540 -541 542 -543 -544 -545 546 -547 548 -549 -550 551 -552
v -553 -554 555 -556 -557 -558 559 -560 561 -562 -563 564 -565 -566 -567 568
v -569 -570 -571 -572 573 -574 -575 576 -577 -578 -579 -580 581 -582 -583 584
v -585 -586 -587 -588 589 -590 -591 592 -593 -594 595 596 -597 -598 -599 600
v -601 -602 603 604 -605 -606 -607 -608 -609 -610 611 -612 -613 614 -615 -616
v 617 -618 619 620 -621 -622 -623 -624 -625 -626 -627 -628 629 -630 -631 632
v -633 -634 635 636 -637 -638 -639 -640 -641 -642 643 -644 645 -646 -647 -648
v 649 -650 -651 -652 653 -654 -655 656 -657 -658 659 -660 -661 -662 663 -664
v -665 666 -667 -668 -669 -670 671 -672 -673 674 -675 -676 -677 -678 679 -680
v -681 682 -683 684 -685 -686 687 -688 -689 -690 691 -692 693 -694 -695 696
v -697 -698 -699 700 -701 -702 -703 704 -705 706 -707 -708 709 -710 -711 -712
v 713 -714 -715 -716 717 -718 719 -720 -721 722 -723 -724 -725 726 -727 -728
v -729 -730 731 -732 -733 734 -735 -736 -737 -738 739 -740 -741 742 -743 -744
... skipped 22685 lines ...
v 235068 -235069 -235070 235071 235072 -235073 -235074 -235075 235076 -235077
v -235078 235079 235080 -235081 -235082 -235083 235084 -235085 -235086 235087
v 235088 -235089 -235090 -235091 235092 -235093 -235094 235095 235096 -235097
v -235098 -235099 235100 -235101 -235102 235103 235104 -235105 -235106 -235107
v -235108 235109 235110 -235111 -235112 -235113 -235114 -235115 235116 -235117
v -235118 235119 235120 -235121 -235122 -235123 235124 -235125 -235126 235127
v 235128 -235129 -235130 -235131 235132 -235133 -235134 235135 235136 -235137
v -235138 -235139 235140 -235141 -235142 235143 235144 -235145 -235146 -235147
v 235148 -235149 -235150 235151 235152 -235153 -235154 -235155 235156 -235157
v -235158 235159 235160 -235161 -235162 -235163 235164 -235165 -235166 235167
v 235168 -235169 -235170 -235171 235172 -235173 -235174 235175 235176 -235177
v -235178 -235179 235180 -235181 -235182 235183 235184 -235185 -235186 -235187
v 235188 -235189 -235190 235191 235192 -235193 -235194 -235195 235196 -235197
v -235198 235199 235200 -235201 -235202 -235203 235204 -235205 -235206 235207
v 235208 -235209 -235210 -235211 235212 -235213 -235214 235215 235216 -235217
v -235218 -235219 235220 -235221 -235222 235223 235224 -235225 -235226 -235227
v 235228 -235229 -235230 235231 235232 -235233 -235234 -235235 235236 -235237
v -235238 235239 235240 -235241 -235242 -235243 235244 -235245 -235246 235247
v 235248 -235249 -235250 -235251 235252 -235253 -235254 235255 235256 -235257
v -235258 -235259 -235260 235261 235262 -235263 -235264 -235265 -235266
v -235267 235268 -235269 -235270 235271 235272 -235273 -235274 -235275 235276
v -235277 -235278 235279 235280 -235281 -235282 -235283 235284 -235285 -235286
v 235287 235288 -235289 -235290 -235291 235292 -235293 -235294 235295 235296
v -235297 -235298 -235299 235300 -235301 -235302 235303 235304 -235305 -235306
v -235307 235308 -235309 -235310 235311 235312 -235313 -235314 -235315 235316
v -235317 -235318 235319 235320 -235321 -235322 -235323 235324 -235325 -235326
v 235327 235328 -235329 -235330 -235331 235332 -235333 -235334 235335 235336
v -235337 -235338 -235339 235340 -235341 -235342 235343 235344 -235345 -235346
v -235347 235348 -235349 -235350 235351 235352 -235353 -235354 -235355 235356
v -235357 -235358 235359 235360 -235361 -235362 -235363 235364 -235365 -235366
v 235367 235368 -235369 -235370 -235371 235372 -235373 -235374 235375 235376
v -235377 -235378 -235379 235380 -235381 -235382 235383 235384 -235385 -235386
v -235387 235388 -235389 -235390 235391 235392 -235393 -235394 -235395 235396
v -235397 -235398 235399 235400 -235401 -235402 -235403 -235404 235405 235406
v -235407 -235408 -235409 -235410 -235411 235412 -235413 -235414 235415 235416
v -235417 -235418 -235419 235420 -235421 -235422 235423 235424 -235425 -235426
v -235427 235428 -235429 -235430 235431 235432 -235433 -235434 -235435 235436
v -235437 -235438 235439 235440 -235441 -235442 -235443 235444 -235445 -235446
v 235447 235448 -235449 -235450 -235451 235452 -235453 -235454 235455 235456
v -235457 -235458 -235459 235460 -235461 -235462 235463 235464 -235465 -235466
v -235467 235468 -235469 -235470 235471 235472 -235473 -235474 -235475 235476
v -235477 -235478 235479 235480 -235481 -235482 -235483 235484 -235485 -235486
v 235487 235488 -235489 -235490 -235491 235492 -235493 -235494 235495 235496
v -235497 -235498 -235499 235500 -235501 -235502 235503 235504 -235505 -235506
v -235507 235508 -235509 -235510 235511 235512 -235513 -235514 -235515 235516
v -235517 -235518 235519 235520 -235521 -235522 -235523 235524 -235525 -235526
v 235527 235528 -235529 -235530 -235531 235532 -235533 -235534 235535 235536
v -235537 -235538 -235539 235540 -235541 -235542 235543 235544 -235545 -235546
v -235547 -235548 235549 235550 -235551 -235552 -235553 -235554 -235555 235556
v -235557 -235558 235559 235560 -235561 -235562 -235563 235564 -235565 -235566
v 235567 235568 -235569 -235570 -235571 235572 -235573 -235574 235575 235576
v -235577 -235578 -235579 235580 -235581 -235582 235583 235584 -235585 -235586
v -235587 235588 -235589 -235590 235591 235592 -235593 -235594 -235595 235596
v -235597 -235598 235599 235600 -235601 -235602 -235603 235604 -235605 -235606
v 235607 235608 -235609 -235610 -235611 235612 -235613 -235614 235615 235616
v -235617 -235618 -235619 235620 -235621 -235622 235623 235624 -235625 -235626
v -235627 235628 -235629 -235630 235631 235632 -235633 -235634 -235635 235636
v -235637 -235638 235639 235640 -235641 -235642 -235643 235644 -235645 -235646
v 235647 235648 -235649 -235650 -235651 235652 -235653 -235654 235655 235656
v -235657 -235658 235659 235660 -235661 -235662 235663 235664 -235665 235666
v 235667 235668 -235669 235670 235671 235672 235673 235674 235675 235676
v -235677 235678 -235679 235680 -235681 235682 -235683 235684 -235685 -235686
v -235687 -235688 -235689 -235690 235691 235692 -235693 -235694 -235695
v -235696 -235697 -235698 235699 -235700 0
c 
c --- [ run-time profiling ] -------------------------------------------------
c 
c process time taken by individual solving procedures
c (percentage relative to process time for solving)
c 
c         0.11  258.02% parse
c         0.04   99.67% lucky
c         0.04   99.67% search
c         0.00    0.00% simplify
c   =================================
c         0.04   25.72% solve
c 
c last line shows process time for solving
c (percentage relative to total process time)
c 
c --- [ statistics ] ---------------------------------------------------------
c 
c fixed:                     48922        20.76 %  of all variables
c lucky:                         1       100.00 %  of tried
c minimized:                     0         0.00 %  learned literals
c shrunken:                      0         0.00 %  learned literals
c minishrunken:                  0         0.00 %  learned literals
c propagations:              48922         1.18 M  per second
c 
c seconds are measured in process time for solving
c 
c --- [ resources ] ----------------------------------------------------------
c 
c total process time since initialization:         0.16    seconds
c total real time since initialization:            0.17    seconds
c maximum resident set size of process:          107.42    MB
c 
c --- [ shutting down ] ------------------------------------------------------
c 
c exit 10
